<?xml version="1.0" encoding="UTF-8"?><osil xmlns="os.optimizationservices.org"   xmlns:xsi="http://www.w3.org/2001/XMLSchema-instance" xsi:schemaLocation="os.optimizationservices.org http://www.optimizationservices.org/schemas/2.0/OSiL.xsd" ><instanceHeader><name>q_20_10_25_2</name></instanceHeader><instanceData><variables numberOfVariables="20"><var name="x1" ub="1"/><var name="x2" ub="1"/><var name="x3" ub="1"/><var name="x4" ub="1"/><var name="x5" ub="1"/><var name="x6" ub="1"/><var name="x7" ub="1"/><var name="x8" ub="1"/><var name="x9" ub="1"/><var name="x10" ub="1"/><var name="x11" ub="1"/><var name="x12" ub="1"/><var name="x13" ub="1"/><var name="x14" ub="1"/><var name="x15" ub="1"/><var name="x16" ub="1"/><var name="x17" ub="1"/><var name="x18" ub="1"/><var name="x19" ub="1"/><var name="x20" ub="1"/></variables><objectives numberOfObjectives="1"><obj maxOrMin="min" name="defObj_x21" numberOfObjCoef="20"><coef idx="0">.5923</coef><coef idx="1">.986</coef><coef idx="2">-6.44e-2</coef><coef idx="3">.6635</coef><coef idx="4">-.7397</coef><coef idx="5">.942</coef><coef idx="6">-.6956</coef><coef idx="7">.7189</coef><coef idx="8">.2027</coef><coef idx="9">.7485</coef><coef idx="10">.4619</coef><coef idx="11">4.3e-3</coef><coef idx="12">.8381</coef><coef idx="13">-.8394</coef><coef idx="14">-.7701</coef><coef idx="15">-.3017</coef><coef idx="16">-.2722</coef><coef idx="17">.4795</coef><coef idx="18">.3531</coef><coef idx="19">.2825</coef></obj></objectives><constraints numberOfConstraints="10"><con name="e2" ub="99.598"/><con name="e3" ub="6.567"/><con name="e4" ub="37.726"/><con name="e5" ub="99.712"/><con name="e6" ub="99.914"/><con name="e7" ub="14.205"/><con name="e8" ub="28.046"/><con name="e9" ub="73.87"/><con name="e10" ub="73.067"/><con name="e11" ub="79.123"/></constraints><linearConstraintCoefficients numberOfValues="200"><start><el mult="11" incr="20">0</el></start><colIdx><el mult="20" incr="1">0</el><el mult="20" incr="1">0</el><el mult="20" incr="1">0</el><el mult="20" incr="1">0</el><el mult="20" incr="1">0</el><el mult="20" incr="1">0</el><el mult="20" incr="1">0</el><el mult="20" incr="1">0</el><el mult="20" incr="1">0</el><el mult="20" incr="1">0</el></colIdx><value><el>-.9485</el><el>.7382</el><el>-.1359</el><el>.3935</el><el>.8373</el><el>.8982</el><el>-.5906</el><el>-.1772</el><el>.834</el><el>-.6971</el><el>-.5593</el><el>.5782</el><el>-5.24e-2</el><el>.3458</el><el>-.5235</el><el>-.1639</el><el>.8372</el><el>.6061</el><el>-4.21e-2</el><el>7.8e-3</el><el>-.7814</el><el>2.65e-2</el><el>-7.1e-3</el><el>-.985</el><el>.9441</el><el>.4356</el><el>.9238</el><el>-.8049</el><el>-.4609</el><el>1.85e-2</el><el>-.5567</el><el>.5428</el><el>.8039</el><el>-.7982</el><el>.433</el><el>.3945</el><el>-.8879</el><el>-6.82e-2</el><el>-6.45e-2</el><el>.8792</el><el>.5806</el><el>-.1607</el><el>5.9e-2</el><el>-.8811</el><el>-.4492</el><el>.7614</el><el>.2033</el><el>-.9171</el><el>-3.82e-2</el><el>-.8299</el><el>-.5709</el><el>-.396</el><el>.7934</el><el>6.89e-2</el><el>-.4928</el><el>-.4895</el><el>.8422</el><el>.8058</el><el>-.3989</el><el>-.7604</el><el>.7289</el><el>8.95e-2</el><el>-.3158</el><el>-.6424</el><el>-.4076</el><el>-.7606</el><el>-.4835</el><el>.7128</el><el>-.7993</el><el>.1586</el><el>-.2892</el><el>-.297</el><el>.4053</el><el>.5703</el><el>.8903</el><el>-.7035</el><el>.607</el><el>-.984</el><el>.1984</el><el>-.3261</el><el>-.2652</el><el>-.7416</el><el>.3104</el><el>.5838</el><el>-.2481</el><el>-.5737</el><el>.1995</el><el>.7254</el><el>-.6076</el><el>.2583</el><el>.3748</el><el>-.821</el><el>-.7231</el><el>.792</el><el>.1935</el><el>.3677</el><el>-.3893</el><el>-.5531</el><el>.3063</el><el>-.3756</el><el>.8229</el><el>-5.85e-2</el><el>.7931</el><el>.2165</el><el>.3018</el><el>-.6853</el><el>.4834</el><el>-.9677</el><el>.9793</el><el>-.3145</el><el>.9356</el><el>-.651</el><el>-.7873</el><el>.5914</el><el>-.82</el><el>-.8009</el><el>-.4826</el><el>-.2493</el><el>.5075</el><el>-.6548</el><el>-.2758</el><el>-.5844</el><el>.3621</el><el>.6829</el><el>-.5893</el><el>.5491</el><el>-.8351</el><el>.5027</el><el>.7318</el><el>-.8597</el><el>.7574</el><el>-.9517</el><el>-.6703</el><el>.1705</el><el>.3118</el><el>-.299</el><el>.1919</el><el>.2</el><el>3.14e-2</el><el>-.9798</el><el>.8432</el><el>.4261</el><el>-.7159</el><el>.6584</el><el>6.54e-2</el><el>.9716</el><el>.3374</el><el>-.6073</el><el>-.4237</el><el>.4155</el><el>.8152</el><el>-.6799</el><el>-.7925</el><el>-.3313</el><el>-.8543</el><el>.6806</el><el>-.7313</el><el>.7493</el><el>-.1795</el><el>-.6154</el><el>-.3003</el><el>-5.2e-3</el><el>-.2116</el><el>-6.9e-2</el><el>.4125</el><el>.1911</el><el>.141</el><el>-.4838</el><el>4.28e-2</el><el>-.3545</el><el>-.836</el><el>.9044</el><el>.9537</el><el>8.03e-2</el><el>-.4248</el><el>.9858</el><el>.8136</el><el>.6273</el><el>.3116</el><el>.5186</el><el>-.816</el><el>.7283</el><el>.7735</el><el>.4313</el><el>-.8995</el><el>-2.42e-2</el><el>.1137</el><el>-8.07e-2</el><el>.3716</el><el>-.9041</el><el>-4.94e-2</el><el>.8577</el><el>.4838</el><el>.9976</el><el>.7792</el><el>-.3619</el><el>.9372</el><el>-.3207</el><el>.8329</el><el>-.746</el></value></linearConstraintCoefficients><quadraticCoefficients  numberOfQuadraticTerms="572" ><qTerm  idx="-1"  idxOne="0"  idxTwo="4"  coef="-1.3751"/><qTerm  idx="-1"  idxOne="0"  idxTwo="9"  coef="-.2999"/><qTerm  idx="-1"  idxOne="0"  idxTwo="19"  coef=".3934"/><qTerm  idx="-1"  idxOne="1"  idxTwo="3"  coef="-1.731"/><qTerm  idx="-1"  idxOne="1"  idxTwo="5"  coef="-5.37e-2"/><qTerm  idx="-1"  idxOne="1"  idxTwo="7"  coef="-.7812"/><qTerm  idx="-1"  idxOne="1"  idxTwo="8"  coef="1.0377"/><qTerm  idx="-1"  idxOne="1"  idxTwo="10"  coef="1.9986"/><qTerm  idx="-1"  idxOne="1"  idxTwo="13"  coef="1.5927"/><qTerm  idx="-1"  idxOne="1"  idxTwo="14"  coef="1.3042"/><qTerm  idx="-1"  idxOne="1"  idxTwo="16"  coef="-4.22e-2"/><qTerm  idx="-1"  idxOne="2"  idxTwo="4"  coef="1.3916"/><qTerm  idx="-1"  idxOne="2"  idxTwo="5"  coef=".8303"/><qTerm  idx="-1"  idxOne="2"  idxTwo="6"  coef="-1.7455"/><qTerm  idx="-1"  idxOne="2"  idxTwo="7"  coef=".3047"/><qTerm  idx="-1"  idxOne="2"  idxTwo="11"  coef="-1.7274"/><qTerm  idx="-1"  idxOne="2"  idxTwo="18"  coef="-.5951"/><qTerm  idx="-1"  idxOne="3"  idxTwo="18"  coef="-1.5269"/><qTerm  idx="-1"  idxOne="4"  idxTwo="5"  coef="-.4344"/><qTerm  idx="-1"  idxOne="4"  idxTwo="10"  coef=".6244"/><qTerm  idx="-1"  idxOne="4"  idxTwo="11"  coef=".45"/><qTerm  idx="-1"  idxOne="4"  idxTwo="12"  coef="-5.51e-2"/><qTerm  idx="-1"  idxOne="4"  idxTwo="18"  coef=".2356"/><qTerm  idx="-1"  idxOne="5"  idxTwo="9"  coef=".6413"/><qTerm  idx="-1"  idxOne="5"  idxTwo="12"  coef="-.8968"/><qTerm  idx="-1"  idxOne="5"  idxTwo="13"  coef="1.4585"/><qTerm  idx="-1"  idxOne="6"  idxTwo="6"  coef="-1.8159"/><qTerm  idx="-1"  idxOne="6"  idxTwo="9"  coef="-1.5598"/><qTerm  idx="-1"  idxOne="6"  idxTwo="12"  coef=".4724"/><qTerm  idx="-1"  idxOne="6"  idxTwo="14"  coef="-1.2294"/><qTerm  idx="-1"  idxOne="6"  idxTwo="18"  coef=".6758"/><qTerm  idx="-1"  idxOne="7"  idxTwo="7"  coef="-.3586"/><qTerm  idx="-1"  idxOne="7"  idxTwo="9"  coef="-1.1537"/><qTerm  idx="-1"  idxOne="8"  idxTwo="10"  coef="-.9231"/><qTerm  idx="-1"  idxOne="8"  idxTwo="15"  coef=".5772"/><qTerm  idx="-1"  idxOne="8"  idxTwo="16"  coef="1.5872"/><qTerm  idx="-1"  idxOne="8"  idxTwo="17"  coef=".3001"/><qTerm  idx="-1"  idxOne="8"  idxTwo="18"  coef="1.9881"/><qTerm  idx="-1"  idxOne="9"  idxTwo="12"  coef="-1.8843"/><qTerm  idx="-1"  idxOne="9"  idxTwo="14"  coef="1.3781"/><qTerm  idx="-1"  idxOne="10"  idxTwo="12"  coef="-.8292"/><qTerm  idx="-1"  idxOne="10"  idxTwo="18"  coef="-.7753"/><qTerm  idx="-1"  idxOne="11"  idxTwo="11"  coef=".753"/><qTerm  idx="-1"  idxOne="11"  idxTwo="13"  coef=".8148"/><qTerm  idx="-1"  idxOne="11"  idxTwo="14"  coef="-1.0589"/><qTerm  idx="-1"  idxOne="11"  idxTwo="18"  coef=".4907"/><qTerm  idx="-1"  idxOne="12"  idxTwo="12"  coef=".5295"/><qTerm  idx="-1"  idxOne="12"  idxTwo="18"  coef="-.6883"/><qTerm  idx="-1"  idxOne="13"  idxTwo="16"  coef="1.812"/><qTerm  idx="-1"  idxOne="13"  idxTwo="18"  coef="-.7428"/><qTerm  idx="-1"  idxOne="15"  idxTwo="15"  coef="-.4933"/><qTerm  idx="-1"  idxOne="17"  idxTwo="19"  coef=".1322"/><qTerm  idx="0"  idxOne="0"  idxTwo="2"  coef="-.4309"/><qTerm  idx="0"  idxOne="0"  idxTwo="5"  coef="-1.0352"/><qTerm  idx="0"  idxOne="0"  idxTwo="7"  coef="-.2972"/><qTerm  idx="0"  idxOne="0"  idxTwo="9"  coef="5.88e-2"/><qTerm  idx="0"  idxOne="0"  idxTwo="16"  coef="1.8944"/><qTerm  idx="0"  idxOne="0"  idxTwo="18"  coef="1.8035"/><qTerm  idx="0"  idxOne="1"  idxTwo="18"  coef=".3429"/><qTerm  idx="0"  idxOne="2"  idxTwo="6"  coef="-.2475"/><qTerm  idx="0"  idxOne="2"  idxTwo="8"  coef=".7028"/><qTerm  idx="0"  idxOne="2"  idxTwo="12"  coef="-1.3043"/><qTerm  idx="0"  idxOne="2"  idxTwo="15"  coef=".849"/><qTerm  idx="0"  idxOne="2"  idxTwo="16"  coef=".7149"/><qTerm  idx="0"  idxOne="2"  idxTwo="18"  coef="-.6708"/><qTerm  idx="0"  idxOne="3"  idxTwo="6"  coef="-.3829"/><qTerm  idx="0"  idxOne="3"  idxTwo="12"  coef="-1.6624"/><qTerm  idx="0"  idxOne="3"  idxTwo="14"  coef="-1.0809"/><qTerm  idx="0"  idxOne="3"  idxTwo="15"  coef="-1.146"/><qTerm  idx="0"  idxOne="4"  idxTwo="8"  coef="-1.3356"/><qTerm  idx="0"  idxOne="4"  idxTwo="13"  coef=".3532"/><qTerm  idx="0"  idxOne="5"  idxTwo="10"  coef="1.538"/><qTerm  idx="0"  idxOne="5"  idxTwo="13"  coef=".5176"/><qTerm  idx="0"  idxOne="5"  idxTwo="15"  coef="3.1e-3"/><qTerm  idx="0"  idxOne="6"  idxTwo="7"  coef=".6341"/><qTerm  idx="0"  idxOne="6"  idxTwo="8"  coef="-1.96"/><qTerm  idx="0"  idxOne="6"  idxTwo="10"  coef="1.4957"/><qTerm  idx="0"  idxOne="6"  idxTwo="11"  coef=".8247"/><qTerm  idx="0"  idxOne="6"  idxTwo="12"  coef=".1839"/><qTerm  idx="0"  idxOne="6"  idxTwo="17"  coef="1.8684"/><qTerm  idx="0"  idxOne="7"  idxTwo="12"  coef="-1.7118"/><qTerm  idx="0"  idxOne="7"  idxTwo="13"  coef=".8082"/><qTerm  idx="0"  idxOne="7"  idxTwo="17"  coef="-.8364"/><qTerm  idx="0"  idxOne="8"  idxTwo="14"  coef="-.3931"/><qTerm  idx="0"  idxOne="8"  idxTwo="19"  coef="-1.3494"/><qTerm  idx="0"  idxOne="9"  idxTwo="11"  coef="1.2126"/><qTerm  idx="0"  idxOne="9"  idxTwo="12"  coef="-.7585"/><qTerm  idx="0"  idxOne="9"  idxTwo="15"  coef="-1.5949"/><qTerm  idx="0"  idxOne="9"  idxTwo="16"  coef=".907"/><qTerm  idx="0"  idxOne="10"  idxTwo="13"  coef="-.3421"/><qTerm  idx="0"  idxOne="10"  idxTwo="15"  coef="1.7025"/><qTerm  idx="0"  idxOne="10"  idxTwo="16"  coef=".7349"/><qTerm  idx="0"  idxOne="11"  idxTwo="11"  coef=".7252"/><qTerm  idx="0"  idxOne="11"  idxTwo="16"  coef="1.5826"/><qTerm  idx="0"  idxOne="12"  idxTwo="12"  coef="9.62e-2"/><qTerm  idx="0"  idxOne="12"  idxTwo="13"  coef="-1.0215"/><qTerm  idx="0"  idxOne="12"  idxTwo="15"  coef=".7326"/><qTerm  idx="0"  idxOne="12"  idxTwo="19"  coef="-1.1297"/><qTerm  idx="0"  idxOne="13"  idxTwo="15"  coef="-1.2282"/><qTerm  idx="0"  idxOne="13"  idxTwo="16"  coef="-1.0064"/><qTerm  idx="0"  idxOne="14"  idxTwo="17"  coef=".7403"/><qTerm  idx="0"  idxOne="14"  idxTwo="18"  coef=".9008"/><qTerm  idx="0"  idxOne="15"  idxTwo="17"  coef="-5.76e-2"/><qTerm  idx="0"  idxOne="16"  idxTwo="19"  coef="-1.5911"/><qTerm  idx="1"  idxOne="0"  idxTwo="8"  coef="-1.6766"/><qTerm  idx="1"  idxOne="0"  idxTwo="9"  coef=".5648"/><qTerm  idx="1"  idxOne="0"  idxTwo="14"  coef="1.5842"/><qTerm  idx="1"  idxOne="1"  idxTwo="6"  coef="-.6642"/><qTerm  idx="1"  idxOne="1"  idxTwo="8"  coef=".6678"/><qTerm  idx="1"  idxOne="1"  idxTwo="9"  coef="-1.507"/><qTerm  idx="1"  idxOne="1"  idxTwo="12"  coef="-1.0287"/><qTerm  idx="1"  idxOne="1"  idxTwo="13"  coef="-.2155"/><qTerm  idx="1"  idxOne="1"  idxTwo="15"  coef="-.7515"/><qTerm  idx="1"  idxOne="1"  idxTwo="16"  coef="-1.2561"/><qTerm  idx="1"  idxOne="1"  idxTwo="17"  coef="9.96e-2"/><qTerm  idx="1"  idxOne="2"  idxTwo="7"  coef="1.7906"/><qTerm  idx="1"  idxOne="2"  idxTwo="11"  coef="-1.8168"/><qTerm  idx="1"  idxOne="2"  idxTwo="12"  coef="-1.5802"/><qTerm  idx="1"  idxOne="3"  idxTwo="3"  coef="-1.79e-2"/><qTerm  idx="1"  idxOne="3"  idxTwo="5"  coef=".7769"/><qTerm  idx="1"  idxOne="3"  idxTwo="6"  coef="1.7466"/><qTerm  idx="1"  idxOne="3"  idxTwo="8"  coef="1.3626"/><qTerm  idx="1"  idxOne="3"  idxTwo="10"  coef="-1.3991"/><qTerm  idx="1"  idxOne="3"  idxTwo="12"  coef="-1.8047"/><qTerm  idx="1"  idxOne="4"  idxTwo="4"  coef=".2978"/><qTerm  idx="1"  idxOne="4"  idxTwo="7"  coef="7.59e-2"/><qTerm  idx="1"  idxOne="4"  idxTwo="14"  coef="1.1785"/><qTerm  idx="1"  idxOne="6"  idxTwo="9"  coef="-.6705"/><qTerm  idx="1"  idxOne="6"  idxTwo="12"  coef="-.9086"/><qTerm  idx="1"  idxOne="6"  idxTwo="15"  coef="1.8902"/><qTerm  idx="1"  idxOne="6"  idxTwo="16"  coef="1.1509"/><qTerm  idx="1"  idxOne="6"  idxTwo="17"  coef="-.9856"/><qTerm  idx="1"  idxOne="7"  idxTwo="12"  coef="1.6713"/><qTerm  idx="1"  idxOne="7"  idxTwo="13"  coef=".1954"/><qTerm  idx="1"  idxOne="8"  idxTwo="8"  coef=".6517"/><qTerm  idx="1"  idxOne="8"  idxTwo="9"  coef="1.2686"/><qTerm  idx="1"  idxOne="8"  idxTwo="16"  coef=".3119"/><qTerm  idx="1"  idxOne="8"  idxTwo="17"  coef=".6756"/><qTerm  idx="1"  idxOne="9"  idxTwo="11"  coef=".9939"/><qTerm  idx="1"  idxOne="9"  idxTwo="13"  coef=".7735"/><qTerm  idx="1"  idxOne="9"  idxTwo="15"  coef="-1.6357"/><qTerm  idx="1"  idxOne="10"  idxTwo="11"  coef="-1.2204"/><qTerm  idx="1"  idxOne="10"  idxTwo="14"  coef=".1004"/><qTerm  idx="1"  idxOne="10"  idxTwo="17"  coef="-.914"/><qTerm  idx="1"  idxOne="10"  idxTwo="19"  coef="-.1641"/><qTerm  idx="1"  idxOne="11"  idxTwo="14"  coef="-.1587"/><qTerm  idx="1"  idxOne="11"  idxTwo="17"  coef="1.3258"/><qTerm  idx="1"  idxOne="11"  idxTwo="18"  coef="-.4277"/><qTerm  idx="1"  idxOne="13"  idxTwo="16"  coef="-.5914"/><qTerm  idx="1"  idxOne="13"  idxTwo="19"  coef="-.8583"/><qTerm  idx="1"  idxOne="14"  idxTwo="14"  coef=".8012"/><qTerm  idx="1"  idxOne="14"  idxTwo="16"  coef="-.4307"/><qTerm  idx="1"  idxOne="15"  idxTwo="17"  coef="-.4006"/><qTerm  idx="1"  idxOne="16"  idxTwo="17"  coef="-.6494"/><qTerm  idx="1"  idxOne="17"  idxTwo="18"  coef=".5681"/><qTerm  idx="1"  idxOne="19"  idxTwo="19"  coef="-1.4689"/><qTerm  idx="2"  idxOne="1"  idxTwo="6"  coef="1.4468"/><qTerm  idx="2"  idxOne="1"  idxTwo="12"  coef="1.043"/><qTerm  idx="2"  idxOne="1"  idxTwo="13"  coef="-1.6863"/><qTerm  idx="2"  idxOne="1"  idxTwo="14"  coef="-.9627"/><qTerm  idx="2"  idxOne="1"  idxTwo="17"  coef=".5935"/><qTerm  idx="2"  idxOne="2"  idxTwo="7"  coef=".1115"/><qTerm  idx="2"  idxOne="2"  idxTwo="9"  coef=".6215"/><qTerm  idx="2"  idxOne="2"  idxTwo="12"  coef=".6839"/><qTerm  idx="2"  idxOne="2"  idxTwo="13"  coef="-1.4049"/><qTerm  idx="2"  idxOne="2"  idxTwo="18"  coef=".1713"/><qTerm  idx="2"  idxOne="3"  idxTwo="4"  coef="-.8221"/><qTerm  idx="2"  idxOne="3"  idxTwo="8"  coef="-1.3116"/><qTerm  idx="2"  idxOne="3"  idxTwo="9"  coef="1.8408"/><qTerm  idx="2"  idxOne="3"  idxTwo="11"  coef=".9583"/><qTerm  idx="2"  idxOne="3"  idxTwo="13"  coef="-1.0125"/><qTerm  idx="2"  idxOne="3"  idxTwo="14"  coef="-1.5253"/><qTerm  idx="2"  idxOne="3"  idxTwo="15"  coef="-.4793"/><qTerm  idx="2"  idxOne="4"  idxTwo="9"  coef="-.54"/><qTerm  idx="2"  idxOne="4"  idxTwo="11"  coef="1.8644"/><qTerm  idx="2"  idxOne="4"  idxTwo="15"  coef="-1.9287"/><qTerm  idx="2"  idxOne="4"  idxTwo="16"  coef=".2441"/><qTerm  idx="2"  idxOne="4"  idxTwo="17"  coef="-.545"/><qTerm  idx="2"  idxOne="4"  idxTwo="19"  coef="-1.2903"/><qTerm  idx="2"  idxOne="5"  idxTwo="10"  coef=".463"/><qTerm  idx="2"  idxOne="5"  idxTwo="13"  coef="-1.939"/><qTerm  idx="2"  idxOne="6"  idxTwo="8"  coef="-.721"/><qTerm  idx="2"  idxOne="6"  idxTwo="11"  coef="-1.2113"/><qTerm  idx="2"  idxOne="6"  idxTwo="14"  coef=".4367"/><qTerm  idx="2"  idxOne="6"  idxTwo="15"  coef=".3576"/><qTerm  idx="2"  idxOne="7"  idxTwo="10"  coef=".555"/><qTerm  idx="2"  idxOne="7"  idxTwo="11"  coef="-1.5632"/><qTerm  idx="2"  idxOne="7"  idxTwo="12"  coef=".4572"/><qTerm  idx="2"  idxOne="7"  idxTwo="14"  coef="-1.8665"/><qTerm  idx="2"  idxOne="7"  idxTwo="15"  coef="-.1045"/><qTerm  idx="2"  idxOne="7"  idxTwo="17"  coef="1.2041"/><qTerm  idx="2"  idxOne="8"  idxTwo="12"  coef=".2865"/><qTerm  idx="2"  idxOne="8"  idxTwo="17"  coef=".4161"/><qTerm  idx="2"  idxOne="8"  idxTwo="19"  coef="-.7825"/><qTerm  idx="2"  idxOne="9"  idxTwo="12"  coef="-.5534"/><qTerm  idx="2"  idxOne="9"  idxTwo="14"  coef="1.2831"/><qTerm  idx="2"  idxOne="10"  idxTwo="11"  coef="-1.1859"/><qTerm  idx="2"  idxOne="10"  idxTwo="13"  coef="-1.3868"/><qTerm  idx="2"  idxOne="10"  idxTwo="19"  coef="1.2354"/><qTerm  idx="2"  idxOne="11"  idxTwo="11"  coef="1.6073"/><qTerm  idx="2"  idxOne="11"  idxTwo="13"  coef=".2401"/><qTerm  idx="2"  idxOne="11"  idxTwo="14"  coef=".7328"/><qTerm  idx="2"  idxOne="12"  idxTwo="14"  coef=".2158"/><qTerm  idx="2"  idxOne="13"  idxTwo="16"  coef="-.28"/><qTerm  idx="2"  idxOne="13"  idxTwo="17"  coef="-.6024"/><qTerm  idx="2"  idxOne="16"  idxTwo="19"  coef="-.5208"/><qTerm  idx="2"  idxOne="17"  idxTwo="17"  coef="-.1461"/><qTerm  idx="2"  idxOne="17"  idxTwo="19"  coef="-.5133"/><qTerm  idx="3"  idxOne="0"  idxTwo="7"  coef="-8.6e-3"/><qTerm  idx="3"  idxOne="0"  idxTwo="16"  coef="-.8535"/><qTerm  idx="3"  idxOne="0"  idxTwo="17"  coef="1.9849"/><qTerm  idx="3"  idxOne="1"  idxTwo="5"  coef=".5248"/><qTerm  idx="3"  idxOne="1"  idxTwo="7"  coef="1.4361"/><qTerm  idx="3"  idxOne="1"  idxTwo="9"  coef="9.15e-2"/><qTerm  idx="3"  idxOne="1"  idxTwo="10"  coef="-1.8801"/><qTerm  idx="3"  idxOne="1"  idxTwo="13"  coef="1.2968"/><qTerm  idx="3"  idxOne="2"  idxTwo="2"  coef="-.7475"/><qTerm  idx="3"  idxOne="2"  idxTwo="10"  coef="1.2302"/><qTerm  idx="3"  idxOne="2"  idxTwo="13"  coef="1.2286"/><qTerm  idx="3"  idxOne="2"  idxTwo="17"  coef="-9.59e-2"/><qTerm  idx="3"  idxOne="3"  idxTwo="10"  coef="1.1694"/><qTerm  idx="3"  idxOne="3"  idxTwo="14"  coef="-.5723"/><qTerm  idx="3"  idxOne="3"  idxTwo="15"  coef="1.8601"/><qTerm  idx="3"  idxOne="3"  idxTwo="16"  coef="1.1602"/><qTerm  idx="3"  idxOne="4"  idxTwo="4"  coef=".6564"/><qTerm  idx="3"  idxOne="4"  idxTwo="6"  coef="1.6542"/><qTerm  idx="3"  idxOne="4"  idxTwo="8"  coef="-1.5663"/><qTerm  idx="3"  idxOne="4"  idxTwo="9"  coef="-.7101"/><qTerm  idx="3"  idxOne="4"  idxTwo="11"  coef="1.7913"/><qTerm  idx="3"  idxOne="4"  idxTwo="12"  coef="-1.1163"/><qTerm  idx="3"  idxOne="4"  idxTwo="13"  coef="-.5904"/><qTerm  idx="3"  idxOne="4"  idxTwo="15"  coef="-.2378"/><qTerm  idx="3"  idxOne="5"  idxTwo="13"  coef="1.1968"/><qTerm  idx="3"  idxOne="6"  idxTwo="6"  coef="-.6933"/><qTerm  idx="3"  idxOne="6"  idxTwo="10"  coef="-.2583"/><qTerm  idx="3"  idxOne="6"  idxTwo="11"  coef="-.488"/><qTerm  idx="3"  idxOne="6"  idxTwo="14"  coef="1.9105"/><qTerm  idx="3"  idxOne="6"  idxTwo="18"  coef="1.9938"/><qTerm  idx="3"  idxOne="7"  idxTwo="16"  coef="-.9231"/><qTerm  idx="3"  idxOne="7"  idxTwo="19"  coef="-1.0086"/><qTerm  idx="3"  idxOne="8"  idxTwo="18"  coef="1.2755"/><qTerm  idx="3"  idxOne="8"  idxTwo="19"  coef="-1.635"/><qTerm  idx="3"  idxOne="9"  idxTwo="13"  coef="-1.7362"/><qTerm  idx="3"  idxOne="9"  idxTwo="14"  coef="-.201"/><qTerm  idx="3"  idxOne="9"  idxTwo="17"  coef="-1.4666"/><qTerm  idx="3"  idxOne="10"  idxTwo="12"  coef="1.7516"/><qTerm  idx="3"  idxOne="10"  idxTwo="15"  coef=".6705"/><qTerm  idx="3"  idxOne="10"  idxTwo="16"  coef="-.5651"/><qTerm  idx="3"  idxOne="11"  idxTwo="14"  coef="1.1126"/><qTerm  idx="3"  idxOne="11"  idxTwo="16"  coef="-.8165"/><qTerm  idx="3"  idxOne="12"  idxTwo="13"  coef="-.8999"/><qTerm  idx="3"  idxOne="13"  idxTwo="16"  coef="-.3238"/><qTerm  idx="3"  idxOne="13"  idxTwo="17"  coef="-.6342"/><qTerm  idx="3"  idxOne="13"  idxTwo="18"  coef="-.6982"/><qTerm  idx="3"  idxOne="14"  idxTwo="15"  coef="-1.2849"/><qTerm  idx="3"  idxOne="14"  idxTwo="16"  coef=".5297"/><qTerm  idx="3"  idxOne="15"  idxTwo="16"  coef="1.1859"/><qTerm  idx="3"  idxOne="16"  idxTwo="17"  coef="-.5362"/><qTerm  idx="3"  idxOne="17"  idxTwo="18"  coef=".3074"/><qTerm  idx="3"  idxOne="17"  idxTwo="19"  coef="1.9839"/><qTerm  idx="4"  idxOne="0"  idxTwo="7"  coef="-1.11e-2"/><qTerm  idx="4"  idxOne="0"  idxTwo="8"  coef=".4656"/><qTerm  idx="4"  idxOne="0"  idxTwo="13"  coef="-1.5573"/><qTerm  idx="4"  idxOne="0"  idxTwo="15"  coef="1.4011"/><qTerm  idx="4"  idxOne="1"  idxTwo="3"  coef="1.1338"/><qTerm  idx="4"  idxOne="1"  idxTwo="5"  coef=".4627"/><qTerm  idx="4"  idxOne="1"  idxTwo="6"  coef="-.6004"/><qTerm  idx="4"  idxOne="1"  idxTwo="8"  coef="1.9414"/><qTerm  idx="4"  idxOne="1"  idxTwo="9"  coef="-.2828"/><qTerm  idx="4"  idxOne="1"  idxTwo="10"  coef="-1.8128"/><qTerm  idx="4"  idxOne="1"  idxTwo="11"  coef=".6512"/><qTerm  idx="4"  idxOne="1"  idxTwo="12"  coef="-1.6048"/><qTerm  idx="4"  idxOne="1"  idxTwo="14"  coef="-.9379"/><qTerm  idx="4"  idxOne="1"  idxTwo="16"  coef="1.4431"/><qTerm  idx="4"  idxOne="2"  idxTwo="6"  coef="1.5009"/><qTerm  idx="4"  idxOne="2"  idxTwo="10"  coef="1.4998"/><qTerm  idx="4"  idxOne="2"  idxTwo="11"  coef="1.9059"/><qTerm  idx="4"  idxOne="2"  idxTwo="12"  coef="1.8432"/><qTerm  idx="4"  idxOne="2"  idxTwo="13"  coef="-.7397"/><qTerm  idx="4"  idxOne="2"  idxTwo="18"  coef="-1.2632"/><qTerm  idx="4"  idxOne="3"  idxTwo="12"  coef="-1.9292"/><qTerm  idx="4"  idxOne="3"  idxTwo="15"  coef="-.4139"/><qTerm  idx="4"  idxOne="4"  idxTwo="4"  coef=".3315"/><qTerm  idx="4"  idxOne="4"  idxTwo="5"  coef="-.2592"/><qTerm  idx="4"  idxOne="4"  idxTwo="13"  coef="1.548"/><qTerm  idx="4"  idxOne="5"  idxTwo="7"  coef="-.2571"/><qTerm  idx="4"  idxOne="5"  idxTwo="11"  coef="1.2862"/><qTerm  idx="4"  idxOne="5"  idxTwo="12"  coef="-.7368"/><qTerm  idx="4"  idxOne="5"  idxTwo="17"  coef="1.6614"/><qTerm  idx="4"  idxOne="6"  idxTwo="10"  coef="-.3752"/><qTerm  idx="4"  idxOne="6"  idxTwo="15"  coef="1.3313"/><qTerm  idx="4"  idxOne="6"  idxTwo="17"  coef=".4663"/><qTerm  idx="4"  idxOne="7"  idxTwo="8"  coef="1.5711"/><qTerm  idx="4"  idxOne="7"  idxTwo="14"  coef=".2501"/><qTerm  idx="4"  idxOne="7"  idxTwo="16"  coef="1.8038"/><qTerm  idx="4"  idxOne="8"  idxTwo="14"  coef=".8508"/><qTerm  idx="4"  idxOne="8"  idxTwo="15"  coef=".5099"/><qTerm  idx="4"  idxOne="8"  idxTwo="16"  coef=".9505"/><qTerm  idx="4"  idxOne="9"  idxTwo="14"  coef="1.9758"/><qTerm  idx="4"  idxOne="9"  idxTwo="17"  coef="-1.2718"/><qTerm  idx="4"  idxOne="10"  idxTwo="11"  coef="1.3579"/><qTerm  idx="4"  idxOne="10"  idxTwo="19"  coef="1.3531"/><qTerm  idx="4"  idxOne="11"  idxTwo="13"  coef="1.9501"/><qTerm  idx="4"  idxOne="11"  idxTwo="14"  coef="1.4304"/><qTerm  idx="4"  idxOne="12"  idxTwo="13"  coef=".2512"/><qTerm  idx="4"  idxOne="12"  idxTwo="18"  coef="-.6316"/><qTerm  idx="4"  idxOne="13"  idxTwo="13"  coef="-1.2977"/><qTerm  idx="4"  idxOne="13"  idxTwo="16"  coef="-1.9892"/><qTerm  idx="4"  idxOne="13"  idxTwo="17"  coef=".2468"/><qTerm  idx="4"  idxOne="14"  idxTwo="15"  coef="-1.1333"/><qTerm  idx="4"  idxOne="14"  idxTwo="16"  coef="-1.3099"/><qTerm  idx="4"  idxOne="14"  idxTwo="18"  coef="1.6535"/><qTerm  idx="5"  idxOne="1"  idxTwo="1"  coef="-.5981"/><qTerm  idx="5"  idxOne="1"  idxTwo="2"  coef=".4762"/><qTerm  idx="5"  idxOne="1"  idxTwo="4"  coef="-.1473"/><qTerm  idx="5"  idxOne="1"  idxTwo="5"  coef="-.2227"/><qTerm  idx="5"  idxOne="1"  idxTwo="9"  coef="-.7106"/><qTerm  idx="5"  idxOne="2"  idxTwo="6"  coef="-1.4093"/><qTerm  idx="5"  idxOne="2"  idxTwo="9"  coef="1.0185"/><qTerm  idx="5"  idxOne="2"  idxTwo="11"  coef="1.6993"/><qTerm  idx="5"  idxOne="2"  idxTwo="13"  coef="1.4856"/><qTerm  idx="5"  idxOne="2"  idxTwo="14"  coef="-.5971"/><qTerm  idx="5"  idxOne="2"  idxTwo="16"  coef="-1.8031"/><qTerm  idx="5"  idxOne="2"  idxTwo="17"  coef=".4597"/><qTerm  idx="5"  idxOne="2"  idxTwo="18"  coef="-1.8326"/><qTerm  idx="5"  idxOne="3"  idxTwo="11"  coef=".4147"/><qTerm  idx="5"  idxOne="3"  idxTwo="18"  coef="3.5e-2"/><qTerm  idx="5"  idxOne="4"  idxTwo="8"  coef=".1067"/><qTerm  idx="5"  idxOne="4"  idxTwo="14"  coef="-1.5469"/><qTerm  idx="5"  idxOne="4"  idxTwo="18"  coef="1.0621"/><qTerm  idx="5"  idxOne="5"  idxTwo="6"  coef="-1.0382"/><qTerm  idx="5"  idxOne="5"  idxTwo="7"  coef="1.0804"/><qTerm  idx="5"  idxOne="5"  idxTwo="14"  coef="-1.9462"/><qTerm  idx="5"  idxOne="5"  idxTwo="17"  coef=".1036"/><qTerm  idx="5"  idxOne="5"  idxTwo="18"  coef="1.7475"/><qTerm  idx="5"  idxOne="6"  idxTwo="9"  coef=".4297"/><qTerm  idx="5"  idxOne="6"  idxTwo="11"  coef="-.9589"/><qTerm  idx="5"  idxOne="6"  idxTwo="13"  coef="-.375"/><qTerm  idx="5"  idxOne="6"  idxTwo="15"  coef=".507"/><qTerm  idx="5"  idxOne="6"  idxTwo="17"  coef="1.3813"/><qTerm  idx="5"  idxOne="7"  idxTwo="10"  coef="7.08e-2"/><qTerm  idx="5"  idxOne="7"  idxTwo="16"  coef=".3884"/><qTerm  idx="5"  idxOne="7"  idxTwo="18"  coef="-1.7584"/><qTerm  idx="5"  idxOne="8"  idxTwo="8"  coef="-1.3801"/><qTerm  idx="5"  idxOne="8"  idxTwo="11"  coef=".5746"/><qTerm  idx="5"  idxOne="8"  idxTwo="12"  coef="1.8695"/><qTerm  idx="5"  idxOne="9"  idxTwo="9"  coef="-1.2551"/><qTerm  idx="5"  idxOne="9"  idxTwo="10"  coef="1.492"/><qTerm  idx="5"  idxOne="9"  idxTwo="11"  coef=".2848"/><qTerm  idx="5"  idxOne="9"  idxTwo="14"  coef="-.9121"/><qTerm  idx="5"  idxOne="9"  idxTwo="18"  coef="1.9782"/><qTerm  idx="5"  idxOne="10"  idxTwo="10"  coef="-.9378"/><qTerm  idx="5"  idxOne="10"  idxTwo="13"  coef=".281"/><qTerm  idx="5"  idxOne="10"  idxTwo="14"  coef="1.2343"/><qTerm  idx="5"  idxOne="10"  idxTwo="17"  coef="-1.62"/><qTerm  idx="5"  idxOne="11"  idxTwo="13"  coef=".3209"/><qTerm  idx="5"  idxOne="11"  idxTwo="14"  coef="-.4454"/><qTerm  idx="5"  idxOne="11"  idxTwo="17"  coef="-.6434"/><qTerm  idx="5"  idxOne="12"  idxTwo="13"  coef=".581"/><qTerm  idx="5"  idxOne="12"  idxTwo="19"  coef="-1.9165"/><qTerm  idx="5"  idxOne="14"  idxTwo="15"  coef="1.1686"/><qTerm  idx="5"  idxOne="14"  idxTwo="18"  coef="1.5946"/><qTerm  idx="5"  idxOne="15"  idxTwo="16"  coef="1.5495"/><qTerm  idx="5"  idxOne="18"  idxTwo="18"  coef=".5179"/><qTerm  idx="6"  idxOne="0"  idxTwo="5"  coef="1.3879"/><qTerm  idx="6"  idxOne="0"  idxTwo="7"  coef="-1.9403"/><qTerm  idx="6"  idxOne="0"  idxTwo="8"  coef="-.3671"/><qTerm  idx="6"  idxOne="0"  idxTwo="9"  coef=".6386"/><qTerm  idx="6"  idxOne="1"  idxTwo="3"  coef="1.5578"/><qTerm  idx="6"  idxOne="1"  idxTwo="8"  coef="-1.9311"/><qTerm  idx="6"  idxOne="1"  idxTwo="9"  coef="-1.5126"/><qTerm  idx="6"  idxOne="1"  idxTwo="13"  coef="-1.4765"/><qTerm  idx="6"  idxOne="1"  idxTwo="16"  coef="-1.2386"/><qTerm  idx="6"  idxOne="1"  idxTwo="18"  coef="-.1698"/><qTerm  idx="6"  idxOne="2"  idxTwo="3"  coef="1.0687"/><qTerm  idx="6"  idxOne="2"  idxTwo="7"  coef="-1.7721"/><qTerm  idx="6"  idxOne="2"  idxTwo="10"  coef=".6741"/><qTerm  idx="6"  idxOne="2"  idxTwo="11"  coef="-1.1321"/><qTerm  idx="6"  idxOne="2"  idxTwo="12"  coef="1.236"/><qTerm  idx="6"  idxOne="2"  idxTwo="16"  coef="-.8812"/><qTerm  idx="6"  idxOne="3"  idxTwo="5"  coef="-.234"/><qTerm  idx="6"  idxOne="3"  idxTwo="6"  coef="-.3952"/><qTerm  idx="6"  idxOne="3"  idxTwo="9"  coef="1.5822"/><qTerm  idx="6"  idxOne="3"  idxTwo="10"  coef="-.5184"/><qTerm  idx="6"  idxOne="3"  idxTwo="11"  coef=".5034"/><qTerm  idx="6"  idxOne="3"  idxTwo="17"  coef="-1.6188"/><qTerm  idx="6"  idxOne="4"  idxTwo="7"  coef="1.8214"/><qTerm  idx="6"  idxOne="4"  idxTwo="9"  coef="-.6313"/><qTerm  idx="6"  idxOne="4"  idxTwo="12"  coef="-.6673"/><qTerm  idx="6"  idxOne="4"  idxTwo="18"  coef=".7296"/><qTerm  idx="6"  idxOne="5"  idxTwo="6"  coef="-.2188"/><qTerm  idx="6"  idxOne="5"  idxTwo="15"  coef="-1.3838"/><qTerm  idx="6"  idxOne="5"  idxTwo="16"  coef="-1.3704"/><qTerm  idx="6"  idxOne="6"  idxTwo="7"  coef="1.5764"/><qTerm  idx="6"  idxOne="6"  idxTwo="10"  coef=".3299"/><qTerm  idx="6"  idxOne="6"  idxTwo="13"  coef="-.5229"/><qTerm  idx="6"  idxOne="7"  idxTwo="8"  coef="-1.1317"/><qTerm  idx="6"  idxOne="7"  idxTwo="10"  coef="1.6705"/><qTerm  idx="6"  idxOne="7"  idxTwo="14"  coef="-1.3033"/><qTerm  idx="6"  idxOne="8"  idxTwo="10"  coef="-1.0398"/><qTerm  idx="6"  idxOne="8"  idxTwo="14"  coef="-1.7774"/><qTerm  idx="6"  idxOne="8"  idxTwo="16"  coef=".6486"/><qTerm  idx="6"  idxOne="8"  idxTwo="18"  coef="-.4641"/><qTerm  idx="6"  idxOne="10"  idxTwo="18"  coef="-1.0937"/><qTerm  idx="6"  idxOne="11"  idxTwo="19"  coef="1.4601"/><qTerm  idx="6"  idxOne="12"  idxTwo="16"  coef=".7016"/><qTerm  idx="6"  idxOne="13"  idxTwo="13"  coef="6.44e-2"/><qTerm  idx="6"  idxOne="13"  idxTwo="14"  coef="1.7888"/><qTerm  idx="6"  idxOne="13"  idxTwo="15"  coef="-1.2061"/><qTerm  idx="6"  idxOne="13"  idxTwo="16"  coef=".6551"/><qTerm  idx="6"  idxOne="13"  idxTwo="18"  coef="1.9499"/><qTerm  idx="6"  idxOne="14"  idxTwo="16"  coef=".883"/><qTerm  idx="6"  idxOne="15"  idxTwo="15"  coef=".3758"/><qTerm  idx="6"  idxOne="15"  idxTwo="16"  coef=".2338"/><qTerm  idx="6"  idxOne="15"  idxTwo="17"  coef=".2947"/><qTerm  idx="6"  idxOne="16"  idxTwo="17"  coef="1.1149"/><qTerm  idx="7"  idxOne="0"  idxTwo="1"  coef="-1.3306"/><qTerm  idx="7"  idxOne="0"  idxTwo="4"  coef="-.3835"/><qTerm  idx="7"  idxOne="0"  idxTwo="10"  coef="1.8706"/><qTerm  idx="7"  idxOne="0"  idxTwo="14"  coef="-1.5295"/><qTerm  idx="7"  idxOne="0"  idxTwo="18"  coef="-1.2536"/><qTerm  idx="7"  idxOne="1"  idxTwo="2"  coef="-1.0934"/><qTerm  idx="7"  idxOne="1"  idxTwo="3"  coef="-.6798"/><qTerm  idx="7"  idxOne="1"  idxTwo="5"  coef="-.9784"/><qTerm  idx="7"  idxOne="1"  idxTwo="6"  coef=".4698"/><qTerm  idx="7"  idxOne="1"  idxTwo="7"  coef="-1.0688"/><qTerm  idx="7"  idxOne="1"  idxTwo="11"  coef=".1984"/><qTerm  idx="7"  idxOne="1"  idxTwo="15"  coef="-1.1817"/><qTerm  idx="7"  idxOne="1"  idxTwo="17"  coef="-7.1e-3"/><qTerm  idx="7"  idxOne="2"  idxTwo="3"  coef="-.2273"/><qTerm  idx="7"  idxOne="2"  idxTwo="8"  coef="1.8675"/><qTerm  idx="7"  idxOne="2"  idxTwo="13"  coef=".3875"/><qTerm  idx="7"  idxOne="2"  idxTwo="17"  coef="-.3991"/><qTerm  idx="7"  idxOne="3"  idxTwo="10"  coef="1.9585"/><qTerm  idx="7"  idxOne="3"  idxTwo="18"  coef="-1.5836"/><qTerm  idx="7"  idxOne="4"  idxTwo="8"  coef=".8636"/><qTerm  idx="7"  idxOne="4"  idxTwo="10"  coef="1.5334"/><qTerm  idx="7"  idxOne="4"  idxTwo="16"  coef=".3874"/><qTerm  idx="7"  idxOne="4"  idxTwo="19"  coef="-1.2853"/><qTerm  idx="7"  idxOne="5"  idxTwo="6"  coef="1.3717"/><qTerm  idx="7"  idxOne="5"  idxTwo="13"  coef="-1.3782"/><qTerm  idx="7"  idxOne="5"  idxTwo="17"  coef="1.9619"/><qTerm  idx="7"  idxOne="6"  idxTwo="7"  coef="6.e-4"/><qTerm  idx="7"  idxOne="6"  idxTwo="10"  coef=".8647"/><qTerm  idx="7"  idxOne="6"  idxTwo="13"  coef="-1.5213"/><qTerm  idx="7"  idxOne="6"  idxTwo="16"  coef="-.8949"/><qTerm  idx="7"  idxOne="7"  idxTwo="10"  coef="-1.7971"/><qTerm  idx="7"  idxOne="7"  idxTwo="13"  coef="-3.7e-3"/><qTerm  idx="7"  idxOne="8"  idxTwo="12"  coef="-.2015"/><qTerm  idx="7"  idxOne="8"  idxTwo="13"  coef="1.8566"/><qTerm  idx="7"  idxOne="9"  idxTwo="13"  coef="1.5252"/><qTerm  idx="7"  idxOne="9"  idxTwo="14"  coef="-1.9052"/><qTerm  idx="7"  idxOne="9"  idxTwo="18"  coef="1.1349"/><qTerm  idx="7"  idxOne="10"  idxTwo="11"  coef="-.1795"/><qTerm  idx="7"  idxOne="10"  idxTwo="13"  coef="1.4138"/><qTerm  idx="7"  idxOne="10"  idxTwo="16"  coef="1.0989"/><qTerm  idx="7"  idxOne="10"  idxTwo="18"  coef="4.4e-2"/><qTerm  idx="7"  idxOne="11"  idxTwo="17"  coef="1.146"/><qTerm  idx="7"  idxOne="11"  idxTwo="19"  coef="-.2878"/><qTerm  idx="7"  idxOne="12"  idxTwo="15"  coef="-.2823"/><qTerm  idx="7"  idxOne="12"  idxTwo="17"  coef="-1.309"/><qTerm  idx="7"  idxOne="12"  idxTwo="18"  coef="-.6398"/><qTerm  idx="7"  idxOne="13"  idxTwo="17"  coef="1.2301"/><qTerm  idx="7"  idxOne="14"  idxTwo="16"  coef="-3.48e-2"/><qTerm  idx="7"  idxOne="15"  idxTwo="16"  coef="-.7306"/><qTerm  idx="7"  idxOne="15"  idxTwo="17"  coef="1.9334"/><qTerm  idx="7"  idxOne="15"  idxTwo="18"  coef=".7562"/><qTerm  idx="7"  idxOne="17"  idxTwo="18"  coef="1.2268"/><qTerm  idx="8"  idxOne="0"  idxTwo="7"  coef=".9205"/><qTerm  idx="8"  idxOne="0"  idxTwo="8"  coef="-.3642"/><qTerm  idx="8"  idxOne="0"  idxTwo="16"  coef="-1.4925"/><qTerm  idx="8"  idxOne="1"  idxTwo="1"  coef="1.2748"/><qTerm  idx="8"  idxOne="1"  idxTwo="6"  coef="-1.7112"/><qTerm  idx="8"  idxOne="1"  idxTwo="13"  coef="-1.9948"/><qTerm  idx="8"  idxOne="1"  idxTwo="15"  coef="1.1088"/><qTerm  idx="8"  idxOne="1"  idxTwo="17"  coef="1.4445"/><qTerm  idx="8"  idxOne="2"  idxTwo="3"  coef=".6472"/><qTerm  idx="8"  idxOne="2"  idxTwo="5"  coef=".8244"/><qTerm  idx="8"  idxOne="2"  idxTwo="11"  coef="1.503"/><qTerm  idx="8"  idxOne="2"  idxTwo="16"  coef="1.1197"/><qTerm  idx="8"  idxOne="2"  idxTwo="18"  coef="1.8708"/><qTerm  idx="8"  idxOne="3"  idxTwo="5"  coef="1.4282"/><qTerm  idx="8"  idxOne="3"  idxTwo="8"  coef=".4981"/><qTerm  idx="8"  idxOne="3"  idxTwo="9"  coef="-.2069"/><qTerm  idx="8"  idxOne="3"  idxTwo="11"  coef="-.2332"/><qTerm  idx="8"  idxOne="3"  idxTwo="12"  coef=".777"/><qTerm  idx="8"  idxOne="3"  idxTwo="16"  coef="1.4155"/><qTerm  idx="8"  idxOne="4"  idxTwo="5"  coef="-1.6299"/><qTerm  idx="8"  idxOne="4"  idxTwo="7"  coef="1.2377"/><qTerm  idx="8"  idxOne="4"  idxTwo="11"  coef=".6471"/><qTerm  idx="8"  idxOne="4"  idxTwo="12"  coef="1.1983"/><qTerm  idx="8"  idxOne="4"  idxTwo="17"  coef="1.6681"/><qTerm  idx="8"  idxOne="5"  idxTwo="5"  coef="-.3044"/><qTerm  idx="8"  idxOne="5"  idxTwo="10"  coef="-.1678"/><qTerm  idx="8"  idxOne="5"  idxTwo="11"  coef="1.5185"/><qTerm  idx="8"  idxOne="5"  idxTwo="16"  coef=".2241"/><qTerm  idx="8"  idxOne="6"  idxTwo="9"  coef="1.9758"/><qTerm  idx="8"  idxOne="6"  idxTwo="10"  coef="-.1943"/><qTerm  idx="8"  idxOne="6"  idxTwo="11"  coef="1.4816"/><qTerm  idx="8"  idxOne="6"  idxTwo="16"  coef="1.7015"/><qTerm  idx="8"  idxOne="7"  idxTwo="8"  coef="-1.8092"/><qTerm  idx="8"  idxOne="7"  idxTwo="14"  coef="-.5102"/><qTerm  idx="8"  idxOne="7"  idxTwo="18"  coef=".5866"/><qTerm  idx="8"  idxOne="8"  idxTwo="14"  coef=".3576"/><qTerm  idx="8"  idxOne="9"  idxTwo="17"  coef="1.3109"/><qTerm  idx="8"  idxOne="10"  idxTwo="13"  coef="1.5033"/><qTerm  idx="8"  idxOne="10"  idxTwo="14"  coef="-1.5467"/><qTerm  idx="8"  idxOne="11"  idxTwo="11"  coef="1.9461"/><qTerm  idx="8"  idxOne="11"  idxTwo="12"  coef="-4.29e-2"/><qTerm  idx="8"  idxOne="11"  idxTwo="16"  coef="-1.38"/><qTerm  idx="8"  idxOne="11"  idxTwo="17"  coef="1.2099"/><qTerm  idx="8"  idxOne="12"  idxTwo="14"  coef="-1.6126"/><qTerm  idx="8"  idxOne="12"  idxTwo="16"  coef=".358"/><qTerm  idx="8"  idxOne="12"  idxTwo="17"  coef="-.5599"/><qTerm  idx="8"  idxOne="12"  idxTwo="19"  coef="3.73e-2"/><qTerm  idx="8"  idxOne="13"  idxTwo="14"  coef=".892"/><qTerm  idx="8"  idxOne="13"  idxTwo="16"  coef=".8095"/><qTerm  idx="8"  idxOne="14"  idxTwo="15"  coef="1.0178"/><qTerm  idx="8"  idxOne="15"  idxTwo="17"  coef="-.4647"/><qTerm  idx="8"  idxOne="15"  idxTwo="18"  coef="-1.7084"/><qTerm  idx="9"  idxOne="0"  idxTwo="2"  coef="-.4399"/><qTerm  idx="9"  idxOne="0"  idxTwo="3"  coef="1.9748"/><qTerm  idx="9"  idxOne="0"  idxTwo="10"  coef="-1.4745"/><qTerm  idx="9"  idxOne="0"  idxTwo="17"  coef="-.3101"/><qTerm  idx="9"  idxOne="0"  idxTwo="18"  coef="-1.8429"/><qTerm  idx="9"  idxOne="1"  idxTwo="2"  coef="1.2766"/><qTerm  idx="9"  idxOne="1"  idxTwo="7"  coef=".4156"/><qTerm  idx="9"  idxOne="1"  idxTwo="16"  coef="-1.1527"/><qTerm  idx="9"  idxOne="1"  idxTwo="17"  coef="1.2368"/><qTerm  idx="9"  idxOne="1"  idxTwo="18"  coef=".6736"/><qTerm  idx="9"  idxOne="2"  idxTwo="2"  coef="-.8784"/><qTerm  idx="9"  idxOne="2"  idxTwo="4"  coef=".1713"/><qTerm  idx="9"  idxOne="2"  idxTwo="11"  coef="1.7741"/><qTerm  idx="9"  idxOne="2"  idxTwo="18"  coef="1.2437"/><qTerm  idx="9"  idxOne="3"  idxTwo="3"  coef="-3.88e-2"/><qTerm  idx="9"  idxOne="3"  idxTwo="7"  coef="-1.012"/><qTerm  idx="9"  idxOne="3"  idxTwo="8"  coef="1.6854"/><qTerm  idx="9"  idxOne="3"  idxTwo="10"  coef=".1793"/><qTerm  idx="9"  idxOne="3"  idxTwo="15"  coef="1.4495"/><qTerm  idx="9"  idxOne="3"  idxTwo="16"  coef="-1.8511"/><qTerm  idx="9"  idxOne="3"  idxTwo="18"  coef="1.4976"/><qTerm  idx="9"  idxOne="4"  idxTwo="4"  coef="-1.0373"/><qTerm  idx="9"  idxOne="4"  idxTwo="5"  coef=".5019"/><qTerm  idx="9"  idxOne="4"  idxTwo="11"  coef="-.153"/><qTerm  idx="9"  idxOne="4"  idxTwo="15"  coef="-1.5055"/><qTerm  idx="9"  idxOne="5"  idxTwo="8"  coef=".2975"/><qTerm  idx="9"  idxOne="5"  idxTwo="9"  coef="-1.2585"/><qTerm  idx="9"  idxOne="5"  idxTwo="12"  coef=".582"/><qTerm  idx="9"  idxOne="5"  idxTwo="13"  coef="-.4968"/><qTerm  idx="9"  idxOne="6"  idxTwo="12"  coef="-1.4208"/><qTerm  idx="9"  idxOne="6"  idxTwo="14"  coef="-.791"/><qTerm  idx="9"  idxOne="6"  idxTwo="16"  coef="1.7333"/><qTerm  idx="9"  idxOne="6"  idxTwo="18"  coef="6.62e-2"/><qTerm  idx="9"  idxOne="7"  idxTwo="9"  coef="-.9189"/><qTerm  idx="9"  idxOne="7"  idxTwo="10"  coef="1.9685"/><qTerm  idx="9"  idxOne="7"  idxTwo="16"  coef="-1.9981"/><qTerm  idx="9"  idxOne="7"  idxTwo="18"  coef="1.8385"/><qTerm  idx="9"  idxOne="8"  idxTwo="12"  coef=".4566"/><qTerm  idx="9"  idxOne="8"  idxTwo="15"  coef="1.4818"/><qTerm  idx="9"  idxOne="8"  idxTwo="16"  coef="1.6104"/><qTerm  idx="9"  idxOne="9"  idxTwo="14"  coef="1.5925"/><qTerm  idx="9"  idxOne="9"  idxTwo="15"  coef=".9263"/><qTerm  idx="9"  idxOne="9"  idxTwo="18"  coef="1.4187"/><qTerm  idx="9"  idxOne="10"  idxTwo="10"  coef="1.3929"/><qTerm  idx="9"  idxOne="10"  idxTwo="11"  coef="-1.8126"/><qTerm  idx="9"  idxOne="11"  idxTwo="12"  coef=".434"/><qTerm  idx="9"  idxOne="11"  idxTwo="16"  coef=".5423"/><qTerm  idx="9"  idxOne="11"  idxTwo="19"  coef="-.9488"/><qTerm  idx="9"  idxOne="13"  idxTwo="19"  coef="-.5738"/><qTerm  idx="9"  idxOne="14"  idxTwo="16"  coef=".2399"/><qTerm  idx="9"  idxOne="14"  idxTwo="18"  coef=".8851"/><qTerm  idx="9"  idxOne="17"  idxTwo="19"  coef="1.8462"/></quadraticCoefficients></instanceData></osil>
